simple/Rule_Generator/opt_200Dynamic1366793778.output
Tried aggregator 1 time.
MIP Presolve eliminated 53 rows and 30 columns.
Reduced MIP has 25 rows, 43 columns, and 156 nonzeros.
Reduced MIP has 0 binaries, 0 generals, 0 SOSs, and 0 indicators.
Probing time =    0.00 sec.
Tried aggregator 2 times.
MIP Presolve eliminated 13 rows and 31 columns.
Aggregator did 12 substitutions.
All rows and columns eliminated.
Presolve time =    0.00 sec.
Solution status 101.
Objective value 50

Elapsed time : 0.000 
